10J3M/DAT/10J3MUTA-13.dat
10 3
0.7688 0.5911
31.2585 977.0938
24.3621 593.5119
19.876 395.0554
32.8699 1080.4303
15.2491 232.5351
36.0416 1298.9969
16.8261 283.1176
34.8017 1211.1583
4.2416 17.9912
1522.6204