10J3M/SOL/10J3MUTA-13.sol
solution status: optimal solution found
objective value:                     57.9427170438387
x#1#1                                               1 	(obj:0)
x#2#1                              0.0918047477102727 	(obj:0)
x#2#3                               0.908195252289727 	(obj:0)
x#3#2                               0.253159684046977 	(obj:0)
x#3#3                               0.746840315953023 	(obj:0)
x#4#1                               0.537285530590719 	(obj:0)
x#4#3                               0.462714469409281 	(obj:0)
x#5#2                                               1 	(obj:0)
x#6#1                                               1 	(obj:0)
x#8#2                                               1 	(obj:0)
x#9#1                               0.815363937150081 	(obj:0)
x#10#2                              0.490196035721855 	(obj:0)
x#10#3                              0.509803964278145 	(obj:0)
z                                    57.9427170438387 	(obj:1)
